JOBS = 1..10;
MACHINES = 1..3;
SPEED = 1;
time = array3d(JOBS,MACHINES,1..SPEED,[94,87,15,76,79,84,18,74,47,36,78,47,84,56,97,79,84,20,45,94,90,25,23,51,54,97,90,28,64,90]);
energy = array3d(JOBS,MACHINES,1..SPEED,[39,41,86,46,45,43,83,47,62,69,45,62,43,57,37,45,43,81,63,39,40,77,79,60,58,37,40,75,52,40]);
precedence = array2d(JOBS,MACHINES,[1,0,2,0,2,1,1,0,2,1,0,2,2,1,0,1,0,2,2,1,0,0,1,2,0,1,2,2,1,0]);
ME = 1;
TE = 200;
st_old = array2d(JOBS,MACHINES,[332,0,426,0,657,187,647,235,672,451,309,625,563,507,90,171,87,441,665,563,271,426,484,574,278,387,484,250,171,0]);
SpeedScaling = array2d(JOBS,MACHINES,[1,1,1,1,1,1,1,1,1,1,1,1,1,1,1,1,1,1,1,1,1,1,1,1,1,1,1,1,1,1]);
